c FILE /home/rafael/Documents/HappySet/MIHS/inputs/happygen/output/graph_scale_free_k7_p0.2_v50_20241127_082457.txt
c SOURCE This is a scale-free graph formed for the happy graph colouring problem.
c DESCRIPTION It was generated using the problem generator of Rhyd Lewis
c
c GRAPH STATS
c Seed                             = -1702590633
c Number of Nodes                  = 50
c Number of colours k              = 7
c Number of pre-assignments        = 10
c Number of links per new node     = 5
c Density                          = 0.191837
c 
c The degrees of nodes 1 to 50, respectively, are as follows 
c [28, 25, 22, 21, 18, 18, 17, 16, 15, 12, 12, 12, 11, 10, 10, 9, 9, 9, 8, 8, 8, 8, 8, 7, 7, 7, 
c  7, 7, 7, 6, 6, 6, 6, 6, 6, 6, 6, 6, 5, 5, 5, 5, 5, 5, 5, 5, 5, 5, 5, 5] 
c  
p edge 50 235 7
e 1 2
e 1 3
e 1 4
e 1 5
e 1 6
e 1 7
e 1 10
e 1 11
e 1 12
e 1 13
e 1 14
e 1 15
e 1 16
e 1 18
e 1 19
e 1 20
e 1 21
e 1 22
e 1 24
e 1 26
e 1 29
e 1 31
e 1 37
e 1 39
e 1 40
e 1 44
e 1 47
e 1 48
e 2 3
e 2 4
e 2 5
e 2 8
e 2 10
e 2 11
e 2 12
e 2 14
e 2 16
e 2 19
e 2 20
e 2 21
e 2 24
e 2 25
e 2 31
e 2 34
e 2 40
e 2 42
e 2 43
e 2 44
e 2 45
e 2 47
e 2 49
e 2 50
e 3 4
e 3 5
e 3 6
e 3 8
e 3 9
e 3 10
e 3 13
e 3 15
e 3 20
e 3 21
e 3 22
e 3 24
e 3 25
e 3 27
e 3 28
e 3 32
e 3 38
e 3 40
e 3 42
e 3 46
e 4 5
e 4 6
e 4 7
e 4 8
e 4 9
e 4 10
e 4 13
e 4 14
e 4 15
e 4 19
e 4 20
e 4 22
e 4 26
e 4 30
e 4 34
e 4 35
e 4 36
e 4 42
e 5 7
e 5 8
e 5 9
e 5 10
e 5 11
e 5 13
e 5 16
e 5 17
e 5 24
e 5 29
e 5 34
e 5 36
e 5 37
e 5 41
e 6 9
e 6 10
e 6 11
e 6 13
e 6 15
e 6 19
e 6 23
e 6 25
e 6 26
e 6 27
e 6 30
e 6 32
e 6 34
e 6 36
e 6 39
e 7 8
e 7 9
e 7 17
e 7 18
e 7 22
e 7 23
e 7 28
e 7 31
e 7 32
e 7 33
e 7 35
e 7 40
e 7 41
e 7 43
e 8 9
e 8 11
e 8 12
e 8 20
e 8 26
e 8 28
e 8 32
e 8 35
e 8 45
e 8 47
e 8 48
e 9 16
e 9 17
e 9 23
e 9 26
e 9 30
e 9 31
e 9 36
e 9 39
e 9 47
e 10 11
e 10 13
e 10 19
e 10 24
e 10 31
e 10 33
e 11 18
e 11 25
e 11 27
e 11 29
e 11 47
e 11 49
e 12 14
e 12 17
e 12 18
e 12 19
e 12 20
e 12 23
e 12 30
e 12 44
e 12 46
e 13 16
e 13 30
e 13 32
e 13 33
e 13 41
e 14 20
e 14 21
e 14 29
e 14 37
e 14 48
e 14 49
e 15 20
e 15 22
e 15 33
e 15 42
e 15 43
e 15 50
e 16 17
e 16 36
e 16 43
e 16 45
e 17 18
e 17 28
e 17 35
e 17 38
e 18 21
e 18 33
e 18 46
e 18 50
e 19 37
e 19 42
e 21 23
e 21 27
e 21 39
e 22 39
e 22 41
e 22 44
e 23 27
e 23 40
e 23 45
e 24 25
e 24 48
e 25 38
e 25 50
e 26 34
e 26 48
e 27 35
e 27 37
e 28 32
e 28 38
e 28 41
e 29 30
e 29 38
e 29 49
e 31 46
e 33 45
e 34 50
e 35 49
e 36 44
e 37 43
e 38 46
n 6 2
n 12 4
n 24 1
n 31 7
n 32 2
n 37 3
n 40 6
n 42 5
n 43 3
n 48 1
